%-----------------------------------------------------------------------------%
% Dual Arm Multi Capacity Multi Tool Scheduling / Routing
% Assembly Configuration
% Auto Generated by python script, authored by Johan Ludde Wessen 
%-----------------------------------------------------------------------------%


task_durations = [|34, 31, 20, 25, 24, 33, 23, 42, 53, 38, 47, 50, 47, 46, 29, 29, 28,  7,  7,  7,  4,  7,  6
                  |33, 33, 26, 32, 31, 29, 25, 39, 49, 46, 52, 48, 49, 58, 24, 33, 26,  8,  8,  6,  5,  7,  6
                  |];


TRAY_TASKS = 1..5;
CAMERA_TASKS = 15..17;
OUTPUT_TASKS = { 14 };


empty_gripper_tasks = 18..23;


gripper_pick_tasks_orders = [|1, 8, -1
|2, 9, -1
|6, 13, -1
|7, 14, -1
|];

suction_pick_tasks_orders = [|3, 15, 10, -1
|4, 16, 11, -1
|5, 17, 12, -1
|];

fixture_task_orders = [|8, 18, 10, 20, 6, -1, -1, -1, -1, -1
|11, 21, 12, 22, 9, 19, 13, 23, 7, -1
|];

